101745
65,50,4,63,39,52,41,83,53,59,68,44,8,28,79,6,61,30,35,38,2,42,15,78,69,25,55,23,12,3,43,57,34,49,47,60,81,72,51,27,16,11,33,7,56,17,77,9,58,74,32,40,75,82,22,5,19,31,24,48,18,37,13,73,64,1,10,29,14,70,62,80,45,46,54,21,71,66,36,26,76,67,20